sat
(:arith-branch          1
 :arith-dio-calls       1
 :arith-gcd-calls       2
 :arith-lower           20
 :arith-make-feasible   2
 :arith-max-columns     54
 :arith-max-rows        30
 :arith-patches         2
 :arith-patches-success 1
 :arith-upper           11
 :decisions             1
 :final-checks          2
 :max-memory            19.28
 :memory                18.63
 :mk-bool-var           31
 :num-allocs            273606
 :num-checks            1
 :rlimit-count          4908
 :time                  0.03
 :total-time            0.11)
